
Gurobi 7.0.2 (mac64, Python) logging started Fri Feb 24 16:32:34 2017


Gurobi 7.0.2 (mac64, Python) logging started Fri Feb 24 16:32:35 2017


Gurobi 7.0.2 (mac64, Python) logging started Fri Feb 24 16:32:35 2017


Gurobi 7.0.2 (mac64, Python) logging started Fri Feb 24 16:32:35 2017


Gurobi 7.0.2 (mac64, Python) logging started Fri Feb 24 16:32:36 2017


Gurobi 7.0.2 (mac64, Python) logging started Fri Feb 24 16:32:36 2017


Gurobi 7.0.2 (mac64, Python) logging started Fri Feb 24 16:32:37 2017


Gurobi 7.0.2 (mac64, Python) logging started Fri Feb 24 16:32:37 2017


Gurobi 7.0.2 (mac64, Python) logging started Fri Feb 24 16:32:37 2017


Gurobi 7.0.2 (mac64, Python) logging started Fri Feb 24 16:32:38 2017


Gurobi 7.0.2 (mac64, Python) logging started Fri Feb 24 16:33:15 2017


Gurobi 7.0.2 (mac64, Python) logging started Fri Feb 24 16:33:15 2017


Gurobi 7.0.2 (mac64, Python) logging started Fri Feb 24 16:33:16 2017


Gurobi 7.0.2 (mac64, Python) logging started Fri Feb 24 16:33:16 2017


Gurobi 7.0.2 (mac64, Python) logging started Fri Feb 24 16:33:17 2017


Gurobi 7.0.2 (mac64, Python) logging started Fri Feb 24 16:33:17 2017


Gurobi 7.0.2 (mac64, Python) logging started Fri Feb 24 16:33:18 2017


Gurobi 7.0.2 (mac64, Python) logging started Fri Feb 24 16:33:18 2017


Gurobi 7.0.2 (mac64, Python) logging started Fri Feb 24 16:33:18 2017


Gurobi 7.0.2 (mac64, Python) logging started Fri Feb 24 16:33:19 2017


Gurobi 7.0.2 (mac64, Python) logging started Sat Feb 25 16:13:36 2017


Gurobi 7.0.2 (mac64, Python) logging started Sat Feb 25 16:13:36 2017


Gurobi 7.0.2 (mac64, Python) logging started Sat Feb 25 16:13:37 2017


Gurobi 7.0.2 (mac64, Python) logging started Sat Feb 25 16:13:37 2017


Gurobi 7.0.2 (mac64, Python) logging started Sat Feb 25 16:13:38 2017


Gurobi 7.0.2 (mac64, Python) logging started Sat Feb 25 16:13:38 2017


Gurobi 7.0.2 (mac64, Python) logging started Sat Feb 25 16:13:39 2017


Gurobi 7.0.2 (mac64, Python) logging started Sat Feb 25 16:13:39 2017


Gurobi 7.0.2 (mac64, Python) logging started Sat Feb 25 16:13:40 2017


Gurobi 7.0.2 (mac64, Python) logging started Sat Feb 25 16:13:40 2017

